c Circuit-CNF generated by TG-PRO v1.0 (c) Huan Chen and Joao Marques-Silva
p cnf 454 1212
1 2 0
1 3 0
-1 -2 -3 0
4 5 0
4 6 0
-4 -5 -6 0
7 8 0
7 9 0
-7 -8 -9 0
10 11 0
10 12 0
-10 -11 -12 0
13 14 0
13 15 0
-13 -14 -15 0
16 17 0
-16 -17 0
18 19 0
18 20 0
-18 -19 -20 0
21 22 0
21 23 0
-21 -22 -23 0
24 25 0
-24 -25 0
26 27 0
26 28 0
-26 -27 -28 0
29 30 0
29 31 0
-29 -30 -31 0
32 33 0
-32 -33 0
34 35 0
34 36 0
-34 -35 -36 0
37 38 0
37 39 0
-37 -38 -39 0
40 41 0
-40 -41 0
42 43 0
-42 -43 0
44 45 0
-44 -45 0
46 47 0
46 41 0
-46 -47 -41 0
48 49 0
-48 -49 0
50 51 0
50 52 0
-50 -51 -52 0
53 54 0
53 55 0
-53 -54 -55 0
56 57 0
-56 -57 0
-58 -59 0
-58 -60 0
58 59 60 0
61 62 0
61 63 0
-61 -62 -63 0
64 65 0
-64 -65 0
-66 -59 0
-66 -67 0
66 59 67 0
-68 -59 0
-68 -69 0
68 59 69 0
-70 -71 0
-70 -72 0
70 71 72 0
73 74 0
73 75 0
-73 -74 -75 0
76 77 0
-76 -77 0
78 79 0
-78 -79 0
80 81 0
-80 -81 0
82 83 0
-82 -83 0
84 85 0
-84 -85 0
86 87 0
-86 -87 0
88 89 0
-88 -89 0
90 91 0
-90 -91 0
92 93 0
-92 -93 0
67 69 0
-67 -69 0
94 95 0
-94 -95 0
96 97 0
-96 -97 0
98 99 0
-98 -99 0
100 101 0
-100 -101 0
102 103 0
-102 -103 0
104 105 0
-104 -105 0
106 107 0
-106 -107 0
108 109 0
-108 -109 0
110 111 0
-110 -111 0
112 81 0
112 83 0
-112 -81 -83 0
113 112 0
-113 -112 0
-60 -95 0
-60 -69 0
60 95 69 0
114 60 0
-114 -60 0
-115 -101 0
-115 -116 0
115 101 116 0
117 115 0
-117 -115 0
118 98 0
118 96 0
-118 -98 -96 0
119 118 0
-119 -118 0
-120 -98 0
-120 -97 0
120 98 97 0
121 120 0
-121 -120 0
122 106 0
122 104 0
-122 -106 -104 0
123 122 0
-123 -122 0
-124 -106 0
-124 -103 0
124 106 103 0
125 124 0
-125 -124 0
126 85 0
126 127 0
-126 -85 -127 0
128 126 0
-128 -126 0
-129 -118 0
-129 -122 0
129 118 122 0
72 129 0
-72 -129 0
130 100 0
130 124 0
-130 -100 -124 0
131 130 0
-131 -130 0
132 133 0
132 134 0
-132 -133 -134 0
135 132 0
-135 -132 0
136 137 0
136 138 0
-136 -137 -138 0
139 136 0
-139 -136 0
140 141 0
140 123 0
-140 -141 -123 0
142 140 0
-142 -140 0
143 103 0
143 123 0
-143 -103 -123 0
144 143 0
-144 -143 0
-145 -99 0
-145 -130 0
145 99 130 0
146 145 0
-146 -145 0
-147 -97 0
-147 -130 0
147 97 130 0
148 147 0
-148 -147 0
-149 -100 0
-149 -125 0
149 100 125 0
150 149 0
-150 -149 0
-151 -105 0
-151 -125 0
151 105 125 0
152 151 0
-152 -151 0
-153 -126 0
-153 -154 0
153 126 154 0
155 153 0
-155 -153 0
-156 -101 0
-156 -157 0
156 101 157 0
158 156 0
-158 -156 0
159 160 0
159 161 0
-159 -160 -161 0
162 159 0
-162 -159 0
-163 -98 0
-163 -140 0
163 98 140 0
12 163 0
-12 -163 0
-164 -165 0
-164 -166 0
164 165 166 0
33 164 0
-33 -164 0
-167 -168 0
-167 -143 0
167 168 143 0
31 167 0
-31 -167 0
41 169 0
41 145 0
-41 -169 -145 0
170 41 0
-170 -41 0
171 88 0
171 145 0
-171 -88 -145 0
172 171 0
-172 -171 0
173 89 0
173 147 0
-173 -89 -147 0
174 173 0
-174 -173 0
175 176 0
175 131 0
-175 -176 -131 0
177 175 0
-177 -175 0
178 179 0
178 151 0
-178 -179 -151 0
180 178 0
-180 -178 0
181 103 0
181 163 0
-181 -103 -163 0
182 181 0
-182 -181 0
-183 -184 0
-183 -171 0
183 184 171 0
185 183 0
-185 -183 0
-186 -127 0
-186 -187 0
186 127 187 0
188 186 0
-188 -186 0
-189 -93 0
-189 -148 0
189 93 148 0
190 189 0
-190 -189 0
-191 -69 0
-191 -192 0
191 69 192 0
193 191 0
-193 -191 0
-194 -77 0
-194 -192 0
194 77 192 0
195 194 0
-195 -194 0
47 100 0
47 196 0
-47 -100 -196 0
197 47 0
-197 -47 0
-198 -96 0
-198 -199 0
198 96 199 0
30 198 0
-30 -198 0
200 201 0
200 202 0
-200 -201 -202 0
203 200 0
-203 -200 0
204 99 0
204 205 0
-204 -99 -205 0
206 204 0
-206 -204 0
-207 -208 0
-207 -209 0
207 208 209 0
210 207 0
-210 -207 0
211 212 0
211 213 0
-211 -212 -213 0
214 211 0
-214 -211 0
-215 -185 0
-215 -216 0
215 185 216 0
217 215 0
-217 -215 0
-218 -97 0
-218 -219 0
218 97 219 0
220 218 0
-220 -218 0
-221 -69 0
-221 -190 0
221 69 190 0
222 221 0
-222 -221 0
-223 -190 0
-223 -224 0
223 190 224 0
225 223 0
-225 -223 0
-226 -227 0
-226 -228 0
226 227 228 0
229 226 0
-229 -226 0
-45 -230 0
-45 -231 0
45 230 231 0
232 83 0
232 218 0
-232 -83 -218 0
233 232 0
-233 -232 0
234 235 0
234 236 0
-234 -235 -236 0
237 234 0
-237 -234 0
238 239 0
238 240 0
-238 -239 -240 0
52 238 0
-52 -238 0
241 242 0
241 243 0
-241 -242 -243 0
3 241 0
-3 -241 0
-244 -245 0
-244 -246 0
244 245 246 0
247 244 0
-247 -244 0
-248 -88 0
-248 -249 0
248 88 249 0
250 248 0
-250 -248 0
251 252 0
251 31 0
-251 -252 -31 0
253 251 0
-253 -251 0
-49 -254 0
-49 -255 0
49 254 255 0
256 257 0
256 229 0
-256 -257 -229 0
258 256 0
-258 -256 0
-43 -259 0
-43 -260 0
43 259 260 0
-261 -262 0
-261 -247 0
261 262 247 0
75 261 0
-75 -261 0
263 264 0
263 265 0
-263 -264 -265 0
266 263 0
-266 -263 0
-17 -267 0
-17 -268 0
17 267 268 0
-25 -269 0
-25 -270 0
25 269 270 0
-57 -271 0
-57 -272 0
57 271 272 0
-65 -273 0
-65 -274 0
65 273 274 0
-275 91 0
-275 89 0
275 -91 -89 0
-276 80 0
-276 82 0
276 -80 -82 0
-277 90 0
-277 88 0
277 -90 -88 0
-278 -93 0
-278 -88 0
278 93 88 0
-279 -81 0
-279 -94 0
279 81 94 0
-280 278 0
-280 279 0
280 -278 -279 0
281 104 0
281 92 0
-281 -104 -92 0
-282 281 0
-282 112 0
282 -281 -112 0
283 77 0
283 79 0
-283 -77 -79 0
-284 281 0
-284 283 0
284 -281 -283 0
-262 -277 0
-262 -275 0
262 277 275 0
-154 79 0
-154 262 0
154 -79 -262 0
285 286 0
285 287 0
-285 -286 -287 0
-157 104 0
-157 285 0
157 -104 -285 0
-288 -289 0
-288 -290 0
288 289 290 0
-291 87 0
-291 288 0
291 -87 -288 0
292 293 0
292 294 0
-292 -293 -294 0
-209 292 0
-209 124 0
209 -292 -124 0
-295 149 0
-295 120 0
295 -149 -120 0
-296 -99 0
-296 -96 0
296 99 96 0
-297 149 0
-297 296 0
297 -149 -296 0
298 92 0
298 90 0
-298 -92 -90 0
-299 298 0
-299 164 0
299 -298 -164 0
166 300 0
166 102 0
-166 -300 -102 0
-301 142 0
-301 166 0
301 -142 -166 0
-302 144 0
-302 296 0
302 -144 -296 0
-196 -303 0
-196 -304 0
196 303 304 0
-305 89 0
-305 196 0
305 -89 -196 0
-306 88 0
-306 196 0
306 -88 -196 0
-307 -100 0
-307 -304 0
307 100 304 0
-308 107 0
-308 307 0
308 -107 -307 0
-309 112 0
-309 307 0
309 -112 -307 0
-310 311 0
-310 170 0
310 -311 -170 0
-312 89 0
-312 170 0
312 -89 -170 0
-313 110 0
-313 170 0
313 -110 -170 0
314 95 0
314 69 0
-314 -95 -69 0
-315 314 0
-315 172 0
315 -314 -172 0
316 171 0
316 317 0
-316 -171 -317 0
-318 283 0
-318 316 0
318 -283 -316 0
-319 -92 0
-319 -146 0
319 92 146 0
-320 96 0
-320 319 0
320 -96 -319 0
-321 314 0
-321 174 0
321 -314 -174 0
322 173 0
322 323 0
-322 -173 -323 0
-324 112 0
-324 322 0
324 -112 -322 0
-325 -173 0
-325 -228 0
325 173 228 0
-326 92 0
-326 325 0
326 -92 -325 0
-327 93 0
-327 177 0
327 -93 -177 0
-328 80 0
-328 194 0
328 -80 -194 0
-208 -329 0
-208 -150 0
208 329 150 0
-330 104 0
-330 208 0
330 -104 -208 0
-331 110 0
-331 208 0
331 -110 -208 0
-332 110 0
-332 182 0
332 -110 -182 0
-333 -112 0
-333 -12 0
333 112 12 0
-270 102 0
-270 333 0
270 -102 -333 0
-334 108 0
-334 198 0
334 -108 -198 0
-335 99 0
-335 198 0
335 -99 -198 0
-336 -337 0
-336 -185 0
336 337 185 0
-338 94 0
-338 336 0
338 -94 -336 0
-339 -340 0
-339 -127 0
339 340 127 0
-341 85 0
-341 339 0
341 -85 -339 0
342 343 0
342 344 0
-342 -343 -344 0
-345 221 0
-345 342 0
345 -221 -342 0
-346 98 0
-346 203 0
346 -98 -203 0
-347 105 0
-347 210 0
347 -105 -210 0
348 349 0
348 217 0
-348 -349 -217 0
-350 314 0
-350 348 0
350 -314 -348 0
-351 -352 0
-351 -220 0
351 352 220 0
-353 351 0
-353 155 0
353 -351 -155 0
-354 -128 0
-354 -232 0
354 128 232 0
-355 89 0
-355 354 0
355 -89 -354 0
-356 -357 0
-356 -224 0
356 357 224 0
358 359 0
358 134 0
-358 -359 -134 0
-272 356 0
-272 358 0
272 -356 -358 0
-360 132 0
-360 356 0
360 -132 -356 0
-361 -113 0
-361 -276 0
361 113 276 0
-362 361 0
-362 248 0
362 -361 -248 0
363 364 0
363 246 0
-363 -364 -246 0
-365 84 0
-365 363 0
365 -84 -363 0
-366 -128 0
-366 -364 0
366 128 364 0
-367 87 0
-367 366 0
367 -87 -366 0
344 -77 0
344 -89 0
-344 77 89 0
286 -111 0
286 -93 0
-286 111 93 0
343 -82 0
343 -88 0
-343 82 88 0
287 -92 0
287 -60 0
-287 92 60 0
127 77 0
127 78 0
-127 -77 -78 0
133 -89 0
133 -127 0
-133 89 127 0
289 94 0
289 93 0
-289 -94 -93 0
368 -69 0
368 -289 0
-368 69 289 0
369 -100 0
369 -118 0
-369 100 118 0
337 370 0
337 283 0
-337 -370 -283 0
359 -89 0
359 -337 0
-359 89 337 0
294 78 0
294 296 0
-294 -78 -296 0
161 -76 0
161 -294 0
-161 76 294 0
371 -108 0
371 -117 0
-371 108 117 0
329 118 0
329 116 0
-329 -118 -116 0
372 -100 0
372 -329 0
-372 100 329 0
293 82 0
293 120 0
-293 -82 -120 0
160 -80 0
160 -293 0
-160 80 293 0
373 93 0
373 138 0
-373 -93 -138 0
374 -97 0
374 -373 0
-374 97 373 0
38 -90 0
38 -41 0
-38 90 41 0
216 76 0
216 79 0
-216 -76 -79 0
187 375 0
187 145 0
-187 -375 -145 0
376 -216 0
376 -187 0
-376 216 187 0
377 378 0
377 147 0
-377 -378 -147 0
379 80 0
379 83 0
-379 -80 -83 0
380 -377 0
380 -379 0
-380 377 379 0
381 -92 0
381 -33 0
-381 92 33 0
199 100 0
199 144 0
-199 -100 -144 0
382 -99 0
382 -199 0
-382 99 199 0
-383 -158 0
-383 -282 0
383 158 282 0
323 107 0
323 384 0
-323 -107 -384 0
385 -383 0
385 -323 0
-385 383 323 0
-386 -158 0
-386 -284 0
386 158 284 0
317 296 0
317 124 0
-317 -296 -124 0
387 -386 0
387 -317 0
-387 386 317 0
388 -110 0
388 -47 0
-388 110 47 0
349 -185 0
349 -127 0
-349 185 127 0
389 88 0
389 189 0
-389 -88 -189 0
390 79 0
390 94 0
-390 -79 -94 0
239 -389 0
239 -390 0
-239 389 390 0
240 -96 0
240 -195 0
-240 96 195 0
-391 -180 0
-391 -310 0
391 180 310 0
392 -110 0
392 -391 0
-392 110 391 0
-393 -319 0
-393 -315 0
393 319 315 0
394 -79 0
394 -393 0
-394 79 393 0
-395 -396 0
-395 -321 0
395 396 321 0
397 -83 0
397 -395 0
-397 83 395 0
-398 -197 0
-398 -213 0
398 197 213 0
252 -89 0
252 -398 0
-252 89 398 0
62 -95 0
62 -217 0
-62 95 217 0
399 67 0
399 215 0
-399 -67 -215 0
400 -94 0
400 -399 0
-400 94 399 0
249 94 0
249 223 0
-249 -94 -223 0
401 -135 0
401 -249 0
-401 135 249 0
402 361 0
402 223 0
-402 -361 -223 0
403 89 0
403 314 0
-403 -89 -314 0
257 -402 0
257 -403 0
-257 402 403 0
404 87 0
404 233 0
-404 -87 -233 0
290 84 0
290 88 0
-290 -84 -88 0
74 -404 0
74 -290 0
-74 404 290 0
-405 -84 0
-405 -370 0
405 84 370 0
406 -405 0
406 -404 0
-406 405 404 0
245 79 0
245 85 0
-245 -79 -85 0
-407 -233 0
-407 -346 0
407 233 346 0
408 -245 0
408 -407 0
-408 245 407 0
409 -250 0
409 -379 0
-409 250 379 0
116 99 0
116 97 0
-116 -99 -97 0
370 76 0
370 78 0
-370 -76 -78 0
228 80 0
228 94 0
-228 -80 -94 0
224 104 0
224 98 0
-224 -104 -98 0
-410 -80 0
-410 -83 0
410 80 83 0
134 89 0
134 410 0
-134 -89 -410 0
411 92 0
411 296 0
-411 -92 -296 0
412 368 0
412 104 0
-412 -368 -104 0
-413 -414 0
-413 -283 0
413 414 283 0
-138 -415 0
-138 -224 0
138 415 224 0
416 369 0
416 371 0
-416 -369 -371 0
179 372 0
179 411 0
-179 -372 -411 0
-384 -103 0
-384 -121 0
384 103 121 0
304 104 0
304 384 0
-304 -104 -384 0
192 104 0
192 131 0
-192 -104 -131 0
-417 -418 0
-417 -122 0
417 418 122 0
9 100 0
9 417 0
-9 -100 -417 0
55 416 0
55 144 0
-55 -416 -144 0
231 178 0
231 181 0
-231 -178 -181 0
-202 -105 0
-202 -114 0
202 105 114 0
219 319 0
219 202 0
-219 -319 -202 0
-396 -92 0
-396 -148 0
396 92 148 0
-205 -96 0
-205 -175 0
205 96 175 0
-419 -82 0
-419 -420 0
419 82 420 0
421 422 0
421 119 0
-421 -422 -119 0
423 76 0
423 191 0
-423 -76 -191 0
-213 -411 0
-213 -152 0
213 411 152 0
260 381 0
260 136 0
-260 -381 -136 0
424 382 0
424 41 0
-424 -382 -41 0
425 385 0
425 376 0
-425 -385 -376 0
426 380 0
426 387 0
-426 -380 -387 0
273 388 0
273 421 0
-273 -388 -421 0
246 86 0
246 218 0
-246 -86 -218 0
364 82 0
364 203 0
-364 -82 -203 0
-235 -318 0
-235 -327 0
235 318 327 0
-236 -427 0
-236 -324 0
236 427 324 0
-242 -205 0
-242 -328 0
242 205 328 0
-243 -170 0
-243 -299 0
243 170 299 0
-39 -427 0
-39 -330 0
39 427 330 0
-428 -302 0
-428 -334 0
428 302 334 0
-429 -139 0
-429 -301 0
429 139 301 0
-430 -335 0
-430 -331 0
430 335 331 0
-431 -432 0
-431 -186 0
431 432 186 0
433 392 0
433 55 0
-433 -392 -55 0
255 374 0
255 394 0
-255 -374 -394 0
434 397 0
434 72 0
-434 -397 -72 0
435 229 0
435 225 0
-435 -229 -225 0
-19 -170 0
-19 -295 0
19 170 295 0
-20 -214 0
-20 -305 0
20 214 305 0
-35 -308 0
-35 -312 0
35 308 312 0
-36 -214 0
-36 -306 0
36 214 306 0
436 401 0
436 9 0
-436 -401 -9 0
-437 -129 0
-437 -345 0
437 129 345 0
-438 -198 0
-438 -326 0
438 198 326 0
-439 -208 0
-439 -320 0
439 208 320 0
-23 -170 0
-23 -297 0
23 170 297 0
-440 -139 0
-440 -341 0
440 139 341 0
-28 -226 0
-28 -350 0
28 226 350 0
268 406 0
268 204 0
-268 -406 -204 0
441 408 0
441 247 0
-441 -408 -247 0
-5 -347 0
-5 -355 0
5 347 355 0
-6 -313 0
-6 -353 0
6 313 353 0
-264 -360 0
-264 -332 0
264 360 332 0
-265 -206 0
-265 -309 0
265 206 309 0
442 409 0
442 229 0
-442 -409 -229 0
-443 -362 0
-443 -338 0
443 362 338 0
-444 -445 0
-444 -226 0
444 445 226 0
-446 -339 0
-446 -365 0
446 339 365 0
-447 -432 0
-447 -367 0
447 432 367 0
269 447 0
269 258 0
-269 -447 -258 0
271 421 0
271 75 0
-271 -421 -75 0
274 400 0
274 75 0
-274 -400 -75 0
-15 -441 0
-15 -425 0
15 441 425 0
-63 -442 0
-63 -433 0
63 442 433 0
-448 -101 0
-448 -98 0
448 101 98 0
-352 -86 0
-352 -410 0
352 86 410 0
-449 -103 0
-449 -413 0
449 103 413 0
-427 -450 0
-427 -125 0
427 450 125 0
-420 -280 0
-420 -291 0
420 280 291 0
-432 -451 0
-432 -377 0
432 451 377 0
-445 -452 0
-445 -289 0
445 452 289 0
-2 439 0
-2 237 0
2 -439 -237 0
-8 428 0
-8 181 0
8 -428 -181 0
-453 429 0
-453 430 0
453 -429 -430 0
-11 453 0
-11 431 0
11 -453 -431 0
-14 30 0
-14 266 0
14 -30 -266 0
-22 30 0
-22 253 0
22 -30 -253 0
-27 188 0
-27 440 0
27 -188 -440 0
-51 437 0
-51 438 0
51 -437 -438 0
-454 443 0
-454 444 0
454 -443 -444 0
-54 454 0
-54 446 0
54 -454 -446 0
71 -102 0
71 -101 0
-71 102 101 0
-137 106 0
-137 413 0
137 -106 -413 0
-141 101 0
-141 96 0
141 -101 -96 0
165 -99 0
165 -140 0
-165 99 140 0
168 -97 0
168 -448 0
-168 97 448 0
-169 105 0
-169 96 0
169 -105 -96 0
-176 104 0
-176 114 0
176 -104 -114 0
184 -97 0
184 -281 0
-184 97 281 0
-201 81 0
-201 396 0
201 -81 -396 0
-212 100 0
-212 89 0
212 -100 -89 0
227 -423 0
227 -116 0
-227 423 116 0
230 -198 0
230 -424 0
-230 198 424 0
254 -198 0
254 -434 0
-254 198 434 0
259 -445 0
259 -435 0
-259 445 435 0
267 -436 0
267 -426 0
-267 436 426 0
303 -106 0
303 -93 0
-303 106 93 0
340 -352 0
340 -219 0
-340 352 219 0
357 -94 0
357 -222 0
-357 94 222 0
-375 97 0
-375 412 0
375 -97 -412 0
-378 99 0
-378 412 0
378 -99 -412 0
414 -97 0
414 -114 0
-414 97 114 0
415 -103 0
415 -101 0
-415 103 101 0
418 -99 0
418 -449 0
-418 99 449 0
-422 419 0
-422 191 0
422 -419 -191 0
450 -329 0
450 -281 0
-450 329 281 0
451 -83 0
451 -80 0
-451 83 80 0
452 -162 0
452 -193 0
-452 162 193 0
